Version identifier: 12.10.0.0 | 2019-11-26 | 843d4de
CPXPARAM_WorkMem                                 28672
Tried aggregator 2 times.
Aggregator did 60 substitutions.
Reduced MIP has 203 rows, 240 columns, and 906 nonzeros.
Reduced MIP has 240 binaries, 0 generals, 0 SOSs, and 0 indicators.
Presolve time = 0,00 sec. (0,86 ticks)
Found incumbent of value 978,000000 after 0,00 sec. (1,52 ticks)
Probing time = 0,00 sec. (0,31 ticks)
Tried aggregator 1 time.
Detecting symmetries...
MIP Presolve eliminated 48 rows and 0 columns.
MIP Presolve added 96 rows and 0 columns.
Reduced MIP has 251 rows, 240 columns, and 954 nonzeros.
Reduced MIP has 240 binaries, 0 generals, 0 SOSs, and 0 indicators.
Presolve time = 0,00 sec. (1,03 ticks)
Probing time = 0,00 sec. (0,30 ticks)
Clique table members: 626.
MIP emphasis: balance optimality and feasibility.
MIP search method: dynamic search.
Parallel mode: deterministic, using up to 16 threads.
Root relaxation solution time = 0,00 sec. (1,42 ticks)

        Nodes                                         Cuts/
   Node  Left     Objective  IInf  Best Integer    Best Bound    ItCnt     Gap

*     0+    0                          978,0000        0,0000           100,00%
*     0+    0                          684,0000        0,0000           100,00%
*     0+    0                          659,0000        0,0000           100,00%
      0     0      326,0000   219      659,0000      326,0000      136   50,53%
      0     0      328,7645   219      659,0000     Cuts: 162      269   50,11%
      0     0      332,1525   219      659,0000     Cuts: 162      326   49,60%
      0     0      332,8308   219      659,0000       Cuts: 5      359   49,49%
      0     0      333,0124   219      659,0000      Fract: 1      385   49,47%
      0     0      333,3032   219      659,0000      Cuts: 90      403   49,42%
Detecting symmetries...
      0     0      333,3533   219      659,0000      Cuts: 53      407   49,42%
      0     0      333,3676   219      659,0000   ZeroHalf: 1      409   49,41%
      0     0      333,3728   219      659,0000   ZeroHalf: 1      413   49,41%
*     0+    0                          639,0000      333,3728            47,83%
*     0+    0                          609,0000      333,3728            45,26%
Detecting symmetries...
      0     2      333,3728   235      609,0000      362,5112      413   40,47%
Elapsed time = 0,19 sec. (77,72 ticks, tree = 0,02 MB, solutions = 5)
*    47+    9                          608,0000      362,5112            40,38%
*   353+    2                          602,0000      368,2900            38,82%
*  1238+  802                          595,0000      405,5960            31,83%
*  1905+  987                          587,0000      437,9504            25,39%

Performing restart 1

Repeating presolve.
Tried aggregator 1 time.
Reduced MIP has 251 rows, 240 columns, and 954 nonzeros.
Reduced MIP has 240 binaries, 0 generals, 0 SOSs, and 0 indicators.
Presolve time = 0,00 sec. (0,55 ticks)
Tried aggregator 1 time.
Reduced MIP has 251 rows, 240 columns, and 954 nonzeros.
Reduced MIP has 240 binaries, 0 generals, 0 SOSs, and 0 indicators.
Presolve time = 0,00 sec. (0,71 ticks)
Represolve time = 0,01 sec. (5,68 ticks)
   4576     0      339,4528   234      587,0000      Cuts: 15   118984   16,64%
   4576     0      341,0091   234      587,0000      Fract: 6   119035   16,64%
   4576     0      345,8310   234      587,0000       Cuts: 7   119104   16,64%
   4576     0      347,7743   234      587,0000       Cuts: 7   119163   16,64%
   4576     0      349,7929   234      587,0000      Fract: 4   119223   16,64%
   4576     2      349,7929   234      587,0000      489,3508   119223   16,64%
   5299   336        cutoff            587,0000      489,3508   134606   16,64%
   7203  1816      530,8484   120      587,0000      489,3508   201114   16,64%
  10161  4166      561,0104   101      587,0000      489,3508   291907   16,64%

Performing restart 2

Repeating presolve.
Tried aggregator 1 time.
Reduced MIP has 251 rows, 240 columns, and 954 nonzeros.
Reduced MIP has 240 binaries, 0 generals, 0 SOSs, and 0 indicators.
Presolve time = 0,00 sec. (0,55 ticks)
Tried aggregator 1 time.
Reduced MIP has 251 rows, 240 columns, and 954 nonzeros.
Reduced MIP has 240 binaries, 0 generals, 0 SOSs, and 0 indicators.
Presolve time = 0,00 sec. (0,71 ticks)
Represolve time = 0,02 sec. (13,44 ticks)
  10569     0      353,6885   236      587,0000      Fract: 3   314129   16,64%
  10569     0      354,3582   236      587,0000      Fract: 3   314182   16,64%
  10569     0      355,9945   236      587,0000       Cuts: 4   314244   16,64%
  10569     0      356,5283   236      587,0000      Fract: 5   314269   16,64%
  10569     0      358,1729   236      587,0000       Cuts: 5   314313   16,64%
  10569     0      362,8953   236      587,0000      Cuts: 10   314412   16,64%
  10569     0      364,8577   236      587,0000      Cuts: 10   314476   16,64%
  10569     2      364,8577   232      587,0000      489,3508   314476   16,64%
  12570  1105        cutoff            587,0000      489,3508   382897   16,64%
  15333  2581      529,8386   144      587,0000      503,0647   466264   14,30%
  18372  3791      570,3325   146      587,0000      524,8293   572005   10,59%
  21295  4060        cutoff            587,0000      540,4204   684711    7,94%

Clique cuts applied:  38
Cover cuts applied:  471
Flow cuts applied:  1
Mixed integer rounding cuts applied:  34
Zero-half cuts applied:  3
Lift and project cuts applied:  6
Gomory fractional cuts applied:  53

Root node processing (before b&c):
  Real time             =    0,18 sec. (77,50 ticks)
Parallel b&c, 16 threads:
  Real time             =    3,71 sec. (2926,10 ticks)
  Sync time (average)   =    1,02 sec.
  Wait time (average)   =    0,02 sec.
                          ------------
Total (root+branch&cut) =    3,89 sec. (3003,60 ticks)
